c defined variables: 33 34 35 36 37 38 39 40 41 42 43 44 45 46 47 48 49 50 51 52 53 54 55 56 57 58 59 60 61 62 63 64 65 66 67 68 69 70 71 72 73 74 75 76 77 78 79 80 81 82 83 84 85 86 87 88 89 90 91 92 93 94 95 96 97 98 99 100 101 102 103 104 105 106 107 108 109 110 111 112 113 114 115 116 117 118 119 120 121 122 123 124 125 126 127 128 129 130 131 132 133 134 135 136 137 138 139 140 141 142 143 144 145 146 147 148 149 150 151 152 153 154 155 156 157 158 159 160 161 162 163 164 165 166 167 191 192 193 194 195 196 197 198 199 200 201 202 203 204 205 206 207 208 209 210 211 212 213 214 215 216 217 218 219 220 221 222 223 224 225 226 227 228 229 230 231 232 233 235 236 238 239 240 241 243 244 245 246 247 248 249 250 251 252 253 254 255 256 257 258 259 260 261 262 263 265 268 269 270 271 272 273 274 275 276 277 278 279 280 281 284 285 286 287 288 289 290 291 292 293 294 295 296 297 298 299 300 301 302 303 304 305 306 307 308 309 311 312 313 314 315 316 317 318 319 320 321 322 323 324 325 326 327 328 330 331 
p cnf 1473 2221
a 1 2 3 4 5 6 7 8 9 10 11 12 13 14 15 16 17 18 19 20 21 22 23 24 25 26 27 28 29 30 31 32 174 175 176 177 178 179 180 181 182 183 184 185 186 187 188 189 190 0
e 33 34 35 36 37 38 39 40 41 42 43 44 45 46 47 48 49 50 51 52 53 54 55 56 57 58 59 60 61 62 63 64 65 66 67 68 69 70 71 72 73 74 75 76 77 78 79 80 81 82 83 84 85 86 87 88 89 90 91 92 93 94 95 96 97 98 99 100 101 102 103 104 105 106 107 108 109 110 111 112 113 114 115 116 117 118 119 120 121 122 123 124 125 126 127 128 129 130 131 132 133 134 135 136 137 138 139 140 141 142 143 144 145 146 147 148 149 150 151 152 153 154 155 156 157 158 159 160 161 162 163 164 165 166 167 191 192 193 194 195 196 197 198 199 200 201 202 203 204 205 206 207 208 209 210 211 212 213 214 215 216 217 218 219 220 221 222 223 224 225 226 227 228 229 230 231 232 233 235 236 238 239 240 241 243 244 245 246 247 248 249 250 251 252 253 254 255 256 257 258 259 260 261 262 263 265 268 269 270 271 272 273 274 275 276 277 278 279 280 281 284 285 286 287 288 289 290 291 292 293 294 295 296 297 298 299 300 301 302 303 304 305 306 307 308 309 311 312 313 314 315 316 317 318 319 320 321 322 323 324 325 326 327 328 330 331 1200 1201 1202 1203 1204 1205 1206 1207 1208 1209 1210 1211 1212 1213 1214 1215 1216 1217 1218 1219 1220 1221 1222 1223 1224 1225 1226 1227 1228 1229 1230 1231 1232 1233 1234 1235 1236 1237 1238 1239 1240 1241 1242 1243 1244 1245 1246 1247 1248 1249 1250 1251 1252 1253 1254 1255 1256 1257 1258 1259 1260 1261 1262 1263 1264 1265 1266 1267 1268 1269 1270 1271 1272 1273 1274 1275 1276 1277 1278 1279 1280 1281 1282 1283 1284 1285 1286 1287 1288 1289 1290 1291 1292 1293 1294 1295 1296 1297 1298 1299 1300 1301 1302 1303 1304 1305 1306 1307 1308 1309 1310 1311 1312 1313 1314 1315 1316 1317 1318 1319 1320 1321 1322 1323 1324 1325 1326 1327 1328 1329 1330 1331 1332 1333 1334 1335 1336 1337 1338 1339 1340 1341 1342 1343 1344 1345 1346 1347 1348 1349 1350 1351 1352 1353 1354 1355 1356 1357 1358 1359 1360 1361 1362 1363 1364 1365 1366 1367 1368 1369 1370 1371 1372 1373 1374 1375 1376 1377 1378 1379 1380 1381 1382 1383 1384 1385 1386 1387 1388 1389 1390 1391 1392 1393 1394 1395 1396 1397 1398 1399 1400 1401 1402 1403 1404 1405 1406 1407 1408 1409 1410 1411 1412 1413 1414 1415 1416 1417 1418 1419 1420 1421 1422 1423 1424 1425 1426 1427 1428 1429 1430 1431 1432 1433 1434 1435 1436 1437 1438 1439 1440 1441 1442 1443 1444 1445 1446 1447 1448 1449 1450 1451 1452 1453 1454 1455 1456 1457 1458 1459 1460 1461 1462 1463 1464 1465 1466 1467 1468 1469 1470 1471 1472 1473 0
d 168 174 175 0
d 169 178 179 0
d 170 176 177 0
d 171 180 181 0
d 172 189 190 0
d 173 182 183 184 185 186 187 188 0
d 234 1 2 3 4 5 6 7 8 9 10 11 12 13 14 15 16 17 18 19 20 21 22 23 24 25 26 27 28 29 30 31 32 174 175 176 177 178 179 180 181 182 183 184 185 186 187 188 189 190 0
d 237 1 2 3 4 5 6 7 8 9 10 11 12 13 14 15 16 17 18 19 20 21 22 23 24 25 26 27 28 29 30 31 32 174 175 176 177 178 179 180 181 182 183 184 185 186 187 188 189 190 0
d 242 1 2 3 4 5 6 7 8 9 10 11 12 13 14 15 16 17 18 19 20 21 22 23 24 25 26 27 28 29 30 31 32 174 175 176 177 178 179 180 181 182 183 184 185 186 187 188 189 190 0
d 264 1 2 3 4 5 6 7 8 9 10 11 12 13 14 15 16 17 18 19 20 21 22 23 24 25 26 27 28 29 30 31 32 174 175 176 177 178 179 180 181 182 183 184 185 186 187 188 189 190 0
d 266 1 2 3 4 5 6 7 8 9 10 11 12 13 14 15 16 17 18 19 20 21 22 23 24 25 26 27 28 29 30 31 32 174 175 176 177 178 179 180 181 182 183 184 185 186 187 188 189 190 0
d 267 1 2 3 4 5 6 7 8 9 10 11 12 13 14 15 16 17 18 19 20 21 22 23 24 25 26 27 28 29 30 31 32 174 175 176 177 178 179 180 181 182 183 184 185 186 187 188 189 190 0
d 282 1 2 3 4 5 6 7 8 9 10 11 12 13 14 15 16 17 18 19 20 21 22 23 24 25 26 27 28 29 30 31 32 174 175 176 177 178 179 180 181 182 183 184 185 186 187 188 189 190 0
d 283 1 2 3 4 5 6 7 8 9 10 11 12 13 14 15 16 17 18 19 20 21 22 23 24 25 26 27 28 29 30 31 32 174 175 176 177 178 179 180 181 182 183 184 185 186 187 188 189 190 0
d 310 1 2 3 4 5 6 7 8 9 10 11 12 13 14 15 16 17 18 19 20 21 22 23 24 25 26 27 28 29 30 31 32 174 175 176 177 178 179 180 181 182 183 184 185 186 187 188 189 190 0
d 329 1 2 3 4 5 6 7 8 9 10 11 12 13 14 15 16 17 18 19 20 21 22 23 24 25 26 27 28 29 30 31 32 174 175 176 177 178 179 180 181 182 183 184 185 186 187 188 189 190 0
1200 -33 0
-1200 33 0
1201 -34 0
-1201 34 0
-1202 -35 0
1202 35 0
1203 -36 0
-1203 36 0
1204 -37 0
-1204 37 0
-1205 -38 0
1205 38 0
1206 -39 0
-1206 39 0
1207 -40 0
-1207 40 0
-1208 -41 0
1208 41 0
-12 -42 0
12 42 0
-1209 -43 0
1209 43 0
-11 -44 0
11 44 0
-1210 -45 0
1210 45 0
-10 -46 0
10 46 0
-1211 -47 0
1211 47 0
-9 -48 0
9 48 0
-1212 -49 0
1212 49 0
-49 -50 0
49 50 0
1213 -51 0
-1213 51 0
1215 -52 0
-1215 52 0
1217 -53 0
-1217 53 0
-1220 -54 0
1220 54 0
1221 -55 0
-1221 55 0
1222 -56 0
-1222 56 0
-1223 -57 0
1223 57 0
1224 -58 0
-1224 58 0
1225 -59 0
-1225 59 0
1226 -60 0
-1226 60 0
1227 -61 0
-1227 61 0
-1228 -62 0
1228 62 0
1229 -63 0
-1229 63 0
1230 -64 0
-1230 64 0
-1231 -65 0
1231 65 0
1232 -66 0
-1232 66 0
1233 -67 0
-1233 67 0
-1234 -68 0
1234 68 0
1235 -69 0
-1235 69 0
1236 -70 0
-1236 70 0
-1237 -71 0
1237 71 0
-8 -72 0
8 72 0
-1238 -73 0
1238 73 0
-7 -74 0
7 74 0
-1239 -75 0
1239 75 0
-6 -76 0
6 76 0
-1240 -77 0
1240 77 0
-5 -78 0
5 78 0
-1241 -79 0
1241 79 0
-79 -80 0
79 80 0
1242 -81 0
-1242 81 0
1244 -82 0
-1244 82 0
1246 -83 0
-1246 83 0
-1249 -84 0
1249 84 0
1250 -85 0
-1250 85 0
1251 -86 0
-1251 86 0
-1252 -87 0
1252 87 0
1253 -88 0
-1253 88 0
1254 -89 0
-1254 89 0
1255 -90 0
-1255 90 0
1256 -91 0
-1256 91 0
-1257 -92 0
1257 92 0
1258 -93 0
-1258 93 0
1259 -94 0
-1259 94 0
-1260 -95 0
1260 95 0
1261 -96 0
-1261 96 0
1262 -97 0
-1262 97 0
-1263 -98 0
1263 98 0
1264 -99 0
-1264 99 0
1265 -100 0
-1265 100 0
-1266 -101 0
1266 101 0
-4 -102 0
4 102 0
-1267 -103 0
1267 103 0
-3 -104 0
3 104 0
-1268 -105 0
1268 105 0
-2 -106 0
2 106 0
-1269 -107 0
1269 107 0
-1 -108 0
1 108 0
-1270 -109 0
1270 109 0
-109 -110 0
109 110 0
1271 -111 0
-1271 111 0
1273 -112 0
-1273 112 0
1275 -113 0
-1275 113 0
-1278 -114 0
1278 114 0
1279 -115 0
-1279 115 0
1280 -116 0
-1280 116 0
-1281 -117 0
1281 117 0
1282 -118 0
-1282 118 0
1283 -119 0
-1283 119 0
1284 -120 0
-1284 120 0
1285 -121 0
-1285 121 0
-1286 -122 0
1286 122 0
1287 -123 0
-1287 123 0
1288 -124 0
-1288 124 0
-1289 -125 0
1289 125 0
1290 -126 0
-1290 126 0
1291 -127 0
-1291 127 0
-1292 -128 0
1292 128 0
1293 -129 0
-1293 129 0
1294 -130 0
-1294 130 0
-1295 -131 0
1295 131 0
-16 -132 0
16 132 0
-1296 -133 0
1296 133 0
-15 -134 0
15 134 0
-1297 -135 0
1297 135 0
-14 -136 0
14 136 0
-1298 -137 0
1298 137 0
-13 -138 0
13 138 0
-1299 -139 0
1299 139 0
-139 -140 0
139 140 0
1300 -141 0
-1300 141 0
1302 -142 0
-1302 142 0
1304 -143 0
-1304 143 0
-1307 -144 0
1307 144 0
1308 -145 0
-1308 145 0
1309 -146 0
-1309 146 0
-1310 -147 0
1310 147 0
1311 -148 0
-1311 148 0
1312 -149 0
-1312 149 0
-144 -150 0
144 150 0
-1313 -151 0
1313 151 0
-54 -152 0
54 152 0
-1314 -153 0
1314 153 0
-84 -154 0
84 154 0
-1315 -155 0
1315 155 0
-114 -156 0
114 156 0
-1316 -157 0
1316 157 0
-157 -158 0
157 158 0
1317 -159 0
-1317 159 0
1319 -160 0
-1319 160 0
1321 -161 0
-1321 161 0
-1324 -162 0
1324 162 0
1325 -163 0
-1325 163 0
1326 -164 0
-1326 164 0
-1327 -165 0
1327 165 0
1328 -166 0
-1328 166 0
1329 -167 0
-1329 167 0
1200 -191 0
-1200 191 0
-191 -192 0
191 192 0
1201 -193 0
-1201 193 0
-1330 -194 0
1330 194 0
1203 -195 0
-1203 195 0
1204 -196 0
-1204 196 0
-1331 -197 0
1331 197 0
1206 -198 0
-1206 198 0
1207 -199 0
-1207 199 0
-1332 -200 0
1332 200 0
-12 -201 0
12 201 0
-1333 -202 0
1333 202 0
-11 -203 0
11 203 0
-1334 -204 0
1334 204 0
-10 -205 0
10 205 0
-1335 -206 0
1335 206 0
-9 -207 0
9 207 0
-1336 -208 0
1336 208 0
-208 -209 0
208 209 0
1337 -210 0
-1337 210 0
1339 -211 0
-1339 211 0
1341 -212 0
-1341 212 0
-1344 -213 0
1344 213 0
1221 -214 0
-1221 214 0
1222 -215 0
-1222 215 0
-1345 -216 0
1345 216 0
1346 -217 0
-1346 217 0
1347 -218 0
-1347 218 0
1348 -219 0
-1348 219 0
1349 -220 0
-1349 220 0
-1350 -221 0
1350 221 0
1232 -222 0
-1232 222 0
1233 -223 0
-1233 223 0
-1351 -224 0
1351 224 0
1235 -225 0
-1235 225 0
1236 -226 0
-1236 226 0
-1352 -227 0
1352 227 0
-8 -228 0
8 228 0
-1353 -229 0
1353 229 0
-7 -230 0
7 230 0
-1354 -231 0
1354 231 0
-6 -232 0
6 232 0
-1355 -233 0
1355 233 0
1356 -235 0
-1356 235 0
1358 -236 0
-1358 236 0
-1361 -238 0
1361 238 0
1250 -239 0
-1250 239 0
1251 -240 0
-1251 240 0
-1362 -241 0
1362 241 0
1363 -243 0
-1363 243 0
1364 -244 0
-1364 244 0
1365 -245 0
-1365 245 0
-1366 -246 0
1366 246 0
1261 -247 0
-1261 247 0
1262 -248 0
-1262 248 0
-1367 -249 0
1367 249 0
1264 -250 0
-1264 250 0
1265 -251 0
-1265 251 0
-1368 -252 0
1368 252 0
-4 -253 0
4 253 0
-1369 -254 0
1369 254 0
-3 -255 0
3 255 0
-1370 -256 0
1370 256 0
-2 -257 0
2 257 0
-1371 -258 0
1371 258 0
-1 -259 0
1 259 0
-1372 -260 0
1372 260 0
-260 -261 0
260 261 0
1373 -262 0
-1373 262 0
1375 -263 0
-1375 263 0
-1378 -265 0
1378 265 0
-1379 -268 0
1379 268 0
1308 -269 0
-1308 269 0
1309 -270 0
-1309 270 0
-1380 -271 0
1380 271 0
1287 -272 0
-1287 272 0
1288 -273 0
-1288 273 0
-1381 -274 0
1381 274 0
1290 -275 0
-1290 275 0
1291 -276 0
-1291 276 0
-1382 -277 0
1382 277 0
1293 -278 0
-1293 278 0
1294 -279 0
-1294 279 0
-1383 -280 0
1383 280 0
1386 -281 0
-1386 281 0
-1387 -284 0
1387 284 0
-213 -285 0
213 285 0
-1388 -286 0
1388 286 0
-238 -287 0
238 287 0
-1389 -288 0
1389 288 0
-265 -289 0
265 289 0
-1390 -290 0
1390 290 0
-290 -291 0
290 291 0
1391 -292 0
-1391 292 0
1393 -293 0
-1393 293 0
1395 -294 0
-1395 294 0
-1398 -295 0
1398 295 0
282 -296 0
-282 296 0
1387 -297 0
-1387 297 0
-1399 -298 0
1399 298 0
1400 -299 0
-1400 299 0
1401 -300 0
-1401 300 0
-16 -301 0
16 301 0
-1402 -302 0
1402 302 0
-15 -303 0
15 303 0
-1403 -304 0
1403 304 0
-14 -305 0
14 305 0
-1404 -306 0
1404 306 0
1279 -307 0
-1279 307 0
1280 -308 0
-1280 308 0
-1405 -309 0
1405 309 0
1408 -311 0
-1408 311 0
1411 -312 0
-1411 312 0
1414 -313 0
-1414 313 0
1416 -314 0
-1416 314 0
1419 -315 0
-1419 315 0
1422 -316 0
-1422 316 0
1425 -317 0
-1425 317 0
1428 -318 0
-1428 318 0
1431 -319 0
-1431 319 0
1434 -320 0
-1434 320 0
1437 -321 0
-1437 321 0
1440 -322 0
-1440 322 0
1444 -323 0
-1444 323 0
-1448 -324 0
1448 324 0
-1454 -325 0
1454 325 0
1457 -326 0
-1457 326 0
1462 -327 0
-1462 327 0
1467 -328 0
-1467 328 0
1470 -330 0
-1470 330 0
1473 -331 0
-1473 331 0
-33 -11 0
-33 27 0
11 -27 33 0
-34 11 0
-34 -27 0
-11 27 34 0
-33 35 0
-34 35 0
-35 33 34 0
-36 -10 0
-36 26 0
10 -26 36 0
-37 10 0
-37 -26 0
-10 26 37 0
-36 38 0
-37 38 0
-38 36 37 0
-39 -9 0
-39 25 0
9 -25 39 0
-40 9 0
-40 -25 0
-9 25 40 0
-39 41 0
-40 41 0
-41 39 40 0
-12 -42 0
12 42 0
-42 43 0
-28 43 0
-43 42 28 0
-11 -44 0
11 44 0
-44 45 0
-27 45 0
-45 44 27 0
-10 -46 0
10 46 0
-46 47 0
-26 47 0
-47 46 26 0
-9 -48 0
9 48 0
-48 49 0
-25 49 0
-49 48 25 0
-49 -50 0
49 50 0
-51 -41 0
-51 -47 0
41 47 51 0
-52 -38 0
-52 -41 0
-52 -45 0
38 41 45 52 0
-53 -35 0
-53 -38 0
-53 -41 0
-53 -43 0
35 38 41 43 53 0
-50 54 0
-51 54 0
-52 54 0
-53 54 0
-54 50 51 52 53 0
-55 -12 0
-55 28 0
12 -28 55 0
-56 12 0
-56 -28 0
-12 28 56 0
-55 57 0
-56 57 0
-57 55 56 0
-58 -57 0
-58 -35 0
-58 -38 0
-58 -41 0
57 35 38 41 58 0
-59 -54 0
-59 -58 0
54 58 59 0
-60 -54 0
-60 59 0
54 -59 60 0
-61 54 0
-61 -59 0
-54 59 61 0
-60 62 0
-61 62 0
-62 60 61 0
-63 -7 0
-63 23 0
7 -23 63 0
-64 7 0
-64 -23 0
-7 23 64 0
-63 65 0
-64 65 0
-65 63 64 0
-66 -6 0
-66 22 0
6 -22 66 0
-67 6 0
-67 -22 0
-6 22 67 0
-66 68 0
-67 68 0
-68 66 67 0
-69 -5 0
-69 21 0
5 -21 69 0
-70 5 0
-70 -21 0
-5 21 70 0
-69 71 0
-70 71 0
-71 69 70 0
-8 -72 0
8 72 0
-72 73 0
-24 73 0
-73 72 24 0
-7 -74 0
7 74 0
-74 75 0
-23 75 0
-75 74 23 0
-6 -76 0
6 76 0
-76 77 0
-22 77 0
-77 76 22 0
-5 -78 0
5 78 0
-78 79 0
-21 79 0
-79 78 21 0
-79 -80 0
79 80 0
-81 -71 0
-81 -77 0
71 77 81 0
-82 -68 0
-82 -71 0
-82 -75 0
68 71 75 82 0
-83 -65 0
-83 -68 0
-83 -71 0
-83 -73 0
65 68 71 73 83 0
-80 84 0
-81 84 0
-82 84 0
-83 84 0
-84 80 81 82 83 0
-85 -8 0
-85 24 0
8 -24 85 0
-86 8 0
-86 -24 0
-8 24 86 0
-85 87 0
-86 87 0
-87 85 86 0
-88 -87 0
-88 -65 0
-88 -68 0
-88 -71 0
87 65 68 71 88 0
-89 -84 0
-89 -88 0
84 88 89 0
-90 -84 0
-90 89 0
84 -89 90 0
-91 84 0
-91 -89 0
-84 89 91 0
-90 92 0
-91 92 0
-92 90 91 0
-93 -3 0
-93 19 0
3 -19 93 0
-94 3 0
-94 -19 0
-3 19 94 0
-93 95 0
-94 95 0
-95 93 94 0
-96 -2 0
-96 18 0
2 -18 96 0
-97 2 0
-97 -18 0
-2 18 97 0
-96 98 0
-97 98 0
-98 96 97 0
-99 -1 0
-99 17 0
1 -17 99 0
-100 1 0
-100 -17 0
-1 17 100 0
-99 101 0
-100 101 0
-101 99 100 0
-4 -102 0
4 102 0
-102 103 0
-20 103 0
-103 102 20 0
-3 -104 0
3 104 0
-104 105 0
-19 105 0
-105 104 19 0
-2 -106 0
2 106 0
-106 107 0
-18 107 0
-107 106 18 0
-1 -108 0
1 108 0
-108 109 0
-17 109 0
-109 108 17 0
-109 -110 0
109 110 0
-111 -101 0
-111 -107 0
101 107 111 0
-112 -98 0
-112 -101 0
-112 -105 0
98 101 105 112 0
-113 -95 0
-113 -98 0
-113 -101 0
-113 -103 0
95 98 101 103 113 0
-110 114 0
-111 114 0
-112 114 0
-113 114 0
-114 110 111 112 113 0
-115 -4 0
-115 20 0
4 -20 115 0
-116 4 0
-116 -20 0
-4 20 116 0
-115 117 0
-116 117 0
-117 115 116 0
-118 -117 0
-118 -95 0
-118 -98 0
-118 -101 0
117 95 98 101 118 0
-119 -114 0
-119 -118 0
114 118 119 0
-120 -114 0
-120 119 0
114 -119 120 0
-121 114 0
-121 -119 0
-114 119 121 0
-120 122 0
-121 122 0
-122 120 121 0
-123 -15 0
-123 31 0
15 -31 123 0
-124 15 0
-124 -31 0
-15 31 124 0
-123 125 0
-124 125 0
-125 123 124 0
-126 -14 0
-126 30 0
14 -30 126 0
-127 14 0
-127 -30 0
-14 30 127 0
-126 128 0
-127 128 0
-128 126 127 0
-129 -13 0
-129 29 0
13 -29 129 0
-130 13 0
-130 -29 0
-13 29 130 0
-129 131 0
-130 131 0
-131 129 130 0
-16 -132 0
16 132 0
-132 133 0
-32 133 0
-133 132 32 0
-15 -134 0
15 134 0
-134 135 0
-31 135 0
-135 134 31 0
-14 -136 0
14 136 0
-136 137 0
-30 137 0
-137 136 30 0
-13 -138 0
13 138 0
-138 139 0
-29 139 0
-139 138 29 0
-139 -140 0
139 140 0
-141 -131 0
-141 -137 0
131 137 141 0
-142 -128 0
-142 -131 0
-142 -135 0
128 131 135 142 0
-143 -125 0
-143 -128 0
-143 -131 0
-143 -133 0
125 128 131 133 143 0
-140 144 0
-141 144 0
-142 144 0
-143 144 0
-144 140 141 142 143 0
-145 -16 0
-145 32 0
16 -32 145 0
-146 16 0
-146 -32 0
-16 32 146 0
-145 147 0
-146 147 0
-147 145 146 0
-148 -147 0
-148 -125 0
-148 -128 0
-148 -131 0
147 125 128 131 148 0
-149 -144 0
-149 -148 0
144 148 149 0
-144 -150 0
144 150 0
-150 151 0
-149 151 0
-151 150 149 0
-54 -152 0
54 152 0
-152 153 0
-59 153 0
-153 152 59 0
-84 -154 0
84 154 0
-154 155 0
-89 155 0
-155 154 89 0
-114 -156 0
114 156 0
-156 157 0
-119 157 0
-157 156 119 0
-157 -158 0
157 158 0
-159 -122 0
-159 -155 0
122 155 159 0
-160 -92 0
-160 -122 0
-160 -153 0
92 122 153 160 0
-161 -62 0
-161 -92 0
-161 -122 0
-161 -151 0
62 92 122 151 161 0
-158 162 0
-159 162 0
-160 162 0
-161 162 0
-162 158 159 160 161 0
-163 -144 0
-163 149 0
144 -149 163 0
-164 144 0
-164 -149 0
-144 149 164 0
-163 165 0
-164 165 0
-165 163 164 0
-166 -165 0
-166 -62 0
-166 -92 0
-166 -122 0
165 62 92 122 166 0
-167 -162 0
-167 -166 0
162 166 167 0
-191 -11 0
-191 27 0
11 -27 191 0
-191 -192 0
191 192 0
-193 11 0
-193 -27 0
-11 27 193 0
-192 194 0
-193 194 0
-194 192 193 0
-195 -10 0
-195 26 0
10 -26 195 0
-196 10 0
-196 -26 0
-10 26 196 0
-195 197 0
-196 197 0
-197 195 196 0
-198 -9 0
-198 25 0
9 -25 198 0
-199 9 0
-199 -25 0
-9 25 199 0
-198 200 0
-199 200 0
-200 198 199 0
-12 -201 0
12 201 0
-201 202 0
-28 202 0
-202 201 28 0
-11 -203 0
11 203 0
-203 204 0
-27 204 0
-204 203 27 0
-10 -205 0
10 205 0
-205 206 0
-26 206 0
-206 205 26 0
-9 -207 0
9 207 0
-207 208 0
-25 208 0
-208 207 25 0
-208 -209 0
208 209 0
-210 -200 0
-210 -206 0
200 206 210 0
-211 -197 0
-211 -200 0
-211 -204 0
197 200 204 211 0
-212 -194 0
-212 -197 0
-212 -200 0
-212 -202 0
194 197 200 202 212 0
-209 213 0
-210 213 0
-211 213 0
-212 213 0
-213 209 210 211 212 0
-214 -12 0
-214 28 0
12 -28 214 0
-215 12 0
-215 -28 0
-12 28 215 0
-214 216 0
-215 216 0
-216 214 215 0
-217 -216 0
-217 -194 0
-217 -197 0
-217 -200 0
216 194 197 200 217 0
-218 -213 0
-218 -217 0
213 217 218 0
-219 -213 0
-219 218 0
213 -218 219 0
-220 213 0
-220 -218 0
-213 218 220 0
-219 221 0
-220 221 0
-221 219 220 0
-222 -6 0
-222 22 0
6 -22 222 0
-223 6 0
-223 -22 0
-6 22 223 0
-222 224 0
-223 224 0
-224 222 223 0
-225 -5 0
-225 21 0
5 -21 225 0
-226 5 0
-226 -21 0
-5 21 226 0
-225 227 0
-226 227 0
-227 225 226 0
-8 -228 0
8 228 0
-228 229 0
-24 229 0
-229 228 24 0
-7 -230 0
7 230 0
-230 231 0
-23 231 0
-231 230 23 0
-6 -232 0
6 232 0
-232 233 0
-22 233 0
-233 232 22 0
-170 -234 0
170 234 0
-235 -227 0
-235 -233 0
227 233 235 0
-236 -224 0
-236 -227 0
-236 -231 0
224 227 231 236 0
-237 -169 0
-237 -224 0
-237 -227 0
-237 -229 0
169 224 227 229 237 0
-234 238 0
-235 238 0
-236 238 0
-237 238 0
-238 234 235 236 237 0
-239 -8 0
-239 24 0
8 -24 239 0
-240 8 0
-240 -24 0
-8 24 240 0
-239 241 0
-240 241 0
-241 239 240 0
-242 -241 0
-242 -169 0
-242 -224 0
-242 -227 0
241 169 224 227 242 0
-243 -238 0
-243 -242 0
238 242 243 0
-244 -238 0
-244 243 0
238 -243 244 0
-245 238 0
-245 -243 0
-238 243 245 0
-244 246 0
-245 246 0
-246 244 245 0
-247 -2 0
-247 18 0
2 -18 247 0
-248 2 0
-248 -18 0
-2 18 248 0
-247 249 0
-248 249 0
-249 247 248 0
-250 -1 0
-250 17 0
1 -17 250 0
-251 1 0
-251 -17 0
-1 17 251 0
-250 252 0
-251 252 0
-252 250 251 0
-4 -253 0
4 253 0
-253 254 0
-20 254 0
-254 253 20 0
-3 -255 0
3 255 0
-255 256 0
-19 256 0
-256 255 19 0
-2 -257 0
2 257 0
-257 258 0
-18 258 0
-258 257 18 0
-1 -259 0
1 259 0
-259 260 0
-17 260 0
-260 259 17 0
-260 -261 0
260 261 0
-262 -252 0
-262 -258 0
252 258 262 0
-263 -249 0
-263 -252 0
-263 -256 0
249 252 256 263 0
-264 -168 0
-264 -249 0
-264 -252 0
-264 -254 0
168 249 252 254 264 0
-261 265 0
-262 265 0
-263 265 0
-264 265 0
-265 261 262 263 264 0
-266 -265 0
-266 172 0
265 -172 266 0
-267 265 0
-267 -172 0
-265 172 267 0
-266 268 0
-267 268 0
-268 266 267 0
-269 -16 0
-269 32 0
16 -32 269 0
-270 16 0
-270 -32 0
-16 32 270 0
-269 271 0
-270 271 0
-271 269 270 0
-272 -15 0
-272 31 0
15 -31 272 0
-273 15 0
-273 -31 0
-15 31 273 0
-272 274 0
-273 274 0
-274 272 273 0
-275 -14 0
-275 30 0
14 -30 275 0
-276 14 0
-276 -30 0
-14 30 276 0
-275 277 0
-276 277 0
-277 275 276 0
-278 -13 0
-278 29 0
13 -29 278 0
-279 13 0
-279 -29 0
-13 29 279 0
-278 280 0
-279 280 0
-280 278 279 0
-281 -271 0
-281 -274 0
-281 -277 0
-281 -280 0
271 274 277 280 281 0
-282 -173 0
-282 -281 0
173 281 282 0
-173 -283 0
173 283 0
-283 284 0
-282 284 0
-284 283 282 0
-213 -285 0
213 285 0
-285 286 0
-218 286 0
-286 285 218 0
-238 -287 0
238 287 0
-287 288 0
-243 288 0
-288 287 243 0
-265 -289 0
265 289 0
-289 290 0
-172 290 0
-290 289 172 0
-290 -291 0
290 291 0
-292 -268 0
-292 -288 0
268 288 292 0
-293 -246 0
-293 -268 0
-293 -286 0
246 268 286 293 0
-294 -221 0
-294 -246 0
-294 -268 0
-294 -284 0
221 246 268 284 294 0
-291 295 0
-292 295 0
-293 295 0
-294 295 0
-295 291 292 293 294 0
-296 -173 0
-296 282 0
173 -282 296 0
-297 173 0
-297 -282 0
-173 282 297 0
-296 298 0
-297 298 0
-298 296 297 0
-299 -298 0
-299 -221 0
-299 -246 0
-299 -268 0
298 221 246 268 299 0
-300 -295 0
-300 -299 0
295 299 300 0
-16 -301 0
16 301 0
-301 302 0
-32 302 0
-302 301 32 0
-15 -303 0
15 303 0
-303 304 0
-31 304 0
-304 303 31 0
-14 -305 0
14 305 0
-305 306 0
-30 306 0
-306 305 30 0
-307 -4 0
-307 20 0
4 -20 307 0
-308 4 0
-308 -20 0
-4 20 308 0
-307 309 0
-308 309 0
-309 307 308 0
-310 -309 0
-310 -168 0
-310 -249 0
-310 -252 0
309 168 249 252 310 0
-311 -167 300 0
-311 167 -300 0
311 -167 -300 0
311 167 300 0
-312 -166 299 0
-312 166 -299 0
312 -166 -299 0
312 166 299 0
-313 -162 295 0
-313 162 -295 0
313 -162 -295 0
313 162 295 0
-311 -312 -313 314 0
-314 311 0
-314 312 0
-314 313 0
-3 -174 -315 0
-3 174 315 0
3 -174 315 0
3 174 -315 0
-19 -175 -316 0
-19 175 316 0
19 -175 316 0
19 175 -316 0
-5 -176 -317 0
-5 176 317 0
5 -176 317 0
5 176 -317 0
-21 -177 -318 0
-21 177 318 0
21 -177 318 0
21 177 -318 0
-7 -178 -319 0
-7 178 319 0
7 -178 319 0
7 178 -319 0
-23 -179 -320 0
-23 179 320 0
23 -179 320 0
23 179 -320 0
-13 -180 -321 0
-13 180 321 0
13 -180 321 0
13 180 -321 0
-29 -181 -322 0
-29 181 322 0
29 -181 322 0
29 181 -322 0
-274 -182 -323 0
-274 182 323 0
274 -182 323 0
274 182 -323 0
-277 -183 -324 0
-277 183 324 0
277 -183 324 0
277 183 -324 0
-280 -184 -325 0
-280 184 325 0
280 -184 325 0
280 184 -325 0
-302 -185 -326 0
-302 185 326 0
302 -185 326 0
302 185 -326 0
-304 -186 -327 0
-304 186 327 0
304 -186 327 0
304 186 -327 0
-306 -187 -328 0
-306 187 328 0
306 -187 328 0
306 187 -328 0
-171 -188 -329 0
-171 188 329 0
171 -188 329 0
171 188 -329 0
-265 -189 -330 0
-265 189 330 0
265 -189 330 0
265 189 -330 0
-310 -190 -331 0
-310 190 331 0
310 -190 331 0
310 190 -331 0
315 316 317 318 319 320 321 322 323 324 325 326 327 328 329 330 331 314 0
-11 -1200 0
27 -1200 0
11 -27 1200 0
11 -1201 0
-27 -1201 0
-11 27 1201 0
-33 -1202 0
-34 -1202 0
33 34 1202 0
-10 -1203 0
26 -1203 0
10 -26 1203 0
10 -1204 0
-26 -1204 0
-10 26 1204 0
-36 -1205 0
-37 -1205 0
36 37 1205 0
-9 -1206 0
25 -1206 0
9 -25 1206 0
9 -1207 0
-25 -1207 0
-9 25 1207 0
-39 -1208 0
-40 -1208 0
39 40 1208 0
-28 -1209 0
-42 -1209 0
28 42 1209 0
-27 -1210 0
-44 -1210 0
27 44 1210 0
-26 -1211 0
-46 -1211 0
26 46 1211 0
-25 -1212 0
-48 -1212 0
25 48 1212 0
-41 -1213 0
-47 -1213 0
41 47 1213 0
-38 -1214 0
-41 -1214 0
38 41 1214 0
-45 -1215 0
1214 -1215 0
45 -1214 1215 0
-35 -1216 0
1214 -1216 0
35 -1214 1216 0
-43 -1217 0
1216 -1217 0
43 -1216 1217 0
-50 -1218 0
-51 -1218 0
50 51 1218 0
-52 -1219 0
-53 -1219 0
52 53 1219 0
1218 -1220 0
1219 -1220 0
-1218 -1219 1220 0
-12 -1221 0
28 -1221 0
12 -28 1221 0
12 -1222 0
-28 -1222 0
-12 28 1222 0
-55 -1223 0
-56 -1223 0
55 56 1223 0
-57 -1224 0
1216 -1224 0
57 -1216 1224 0
-54 -1225 0
-58 -1225 0
54 58 1225 0
-54 -1226 0
59 -1226 0
54 -59 1226 0
54 -1227 0
-59 -1227 0
-54 59 1227 0
-60 -1228 0
-61 -1228 0
60 61 1228 0
-7 -1229 0
23 -1229 0
7 -23 1229 0
7 -1230 0
-23 -1230 0
-7 23 1230 0
-63 -1231 0
-64 -1231 0
63 64 1231 0
-6 -1232 0
22 -1232 0
6 -22 1232 0
6 -1233 0
-22 -1233 0
-6 22 1233 0
-66 -1234 0
-67 -1234 0
66 67 1234 0
-5 -1235 0
21 -1235 0
5 -21 1235 0
5 -1236 0
-21 -1236 0
-5 21 1236 0
-69 -1237 0
-70 -1237 0
69 70 1237 0
-24 -1238 0
-72 -1238 0
24 72 1238 0
-23 -1239 0
-74 -1239 0
23 74 1239 0
-22 -1240 0
-76 -1240 0
22 76 1240 0
-21 -1241 0
-78 -1241 0
21 78 1241 0
-71 -1242 0
-77 -1242 0
71 77 1242 0
-68 -1243 0
-71 -1243 0
68 71 1243 0
-75 -1244 0
1243 -1244 0
75 -1243 1244 0
-65 -1245 0
1243 -1245 0
65 -1243 1245 0
-73 -1246 0
1245 -1246 0
73 -1245 1246 0
-80 -1247 0
-81 -1247 0
80 81 1247 0
-82 -1248 0
-83 -1248 0
82 83 1248 0
1247 -1249 0
1248 -1249 0
-1247 -1248 1249 0
-8 -1250 0
24 -1250 0
8 -24 1250 0
8 -1251 0
-24 -1251 0
-8 24 1251 0
-85 -1252 0
-86 -1252 0
85 86 1252 0
-87 -1253 0
1245 -1253 0
87 -1245 1253 0
-84 -1254 0
-88 -1254 0
84 88 1254 0
-84 -1255 0
89 -1255 0
84 -89 1255 0
84 -1256 0
-89 -1256 0
-84 89 1256 0
-90 -1257 0
-91 -1257 0
90 91 1257 0
-3 -1258 0
19 -1258 0
3 -19 1258 0
3 -1259 0
-19 -1259 0
-3 19 1259 0
-93 -1260 0
-94 -1260 0
93 94 1260 0
-2 -1261 0
18 -1261 0
2 -18 1261 0
2 -1262 0
-18 -1262 0
-2 18 1262 0
-96 -1263 0
-97 -1263 0
96 97 1263 0
-1 -1264 0
17 -1264 0
1 -17 1264 0
1 -1265 0
-17 -1265 0
-1 17 1265 0
-99 -1266 0
-100 -1266 0
99 100 1266 0
-20 -1267 0
-102 -1267 0
20 102 1267 0
-19 -1268 0
-104 -1268 0
19 104 1268 0
-18 -1269 0
-106 -1269 0
18 106 1269 0
-17 -1270 0
-108 -1270 0
17 108 1270 0
-101 -1271 0
-107 -1271 0
101 107 1271 0
-98 -1272 0
-101 -1272 0
98 101 1272 0
-105 -1273 0
1272 -1273 0
105 -1272 1273 0
-95 -1274 0
1272 -1274 0
95 -1272 1274 0
-103 -1275 0
1274 -1275 0
103 -1274 1275 0
-110 -1276 0
-111 -1276 0
110 111 1276 0
-112 -1277 0
-113 -1277 0
112 113 1277 0
1276 -1278 0
1277 -1278 0
-1276 -1277 1278 0
-4 -1279 0
20 -1279 0
4 -20 1279 0
4 -1280 0
-20 -1280 0
-4 20 1280 0
-115 -1281 0
-116 -1281 0
115 116 1281 0
-117 -1282 0
1274 -1282 0
117 -1274 1282 0
-114 -1283 0
-118 -1283 0
114 118 1283 0
-114 -1284 0
119 -1284 0
114 -119 1284 0
114 -1285 0
-119 -1285 0
-114 119 1285 0
-120 -1286 0
-121 -1286 0
120 121 1286 0
-15 -1287 0
31 -1287 0
15 -31 1287 0
15 -1288 0
-31 -1288 0
-15 31 1288 0
-123 -1289 0
-124 -1289 0
123 124 1289 0
-14 -1290 0
30 -1290 0
14 -30 1290 0
14 -1291 0
-30 -1291 0
-14 30 1291 0
-126 -1292 0
-127 -1292 0
126 127 1292 0
-13 -1293 0
29 -1293 0
13 -29 1293 0
13 -1294 0
-29 -1294 0
-13 29 1294 0
-129 -1295 0
-130 -1295 0
129 130 1295 0
-32 -1296 0
-132 -1296 0
32 132 1296 0
-31 -1297 0
-134 -1297 0
31 134 1297 0
-30 -1298 0
-136 -1298 0
30 136 1298 0
-29 -1299 0
-138 -1299 0
29 138 1299 0
-131 -1300 0
-137 -1300 0
131 137 1300 0
-128 -1301 0
-131 -1301 0
128 131 1301 0
-135 -1302 0
1301 -1302 0
135 -1301 1302 0
-125 -1303 0
1301 -1303 0
125 -1301 1303 0
-133 -1304 0
1303 -1304 0
133 -1303 1304 0
-140 -1305 0
-141 -1305 0
140 141 1305 0
-142 -1306 0
-143 -1306 0
142 143 1306 0
1305 -1307 0
1306 -1307 0
-1305 -1306 1307 0
-16 -1308 0
32 -1308 0
16 -32 1308 0
16 -1309 0
-32 -1309 0
-16 32 1309 0
-145 -1310 0
-146 -1310 0
145 146 1310 0
-147 -1311 0
1303 -1311 0
147 -1303 1311 0
-144 -1312 0
-148 -1312 0
144 148 1312 0
-149 -1313 0
-150 -1313 0
149 150 1313 0
-59 -1314 0
-152 -1314 0
59 152 1314 0
-89 -1315 0
-154 -1315 0
89 154 1315 0
-119 -1316 0
-156 -1316 0
119 156 1316 0
-122 -1317 0
-155 -1317 0
122 155 1317 0
-92 -1318 0
-122 -1318 0
92 122 1318 0
-153 -1319 0
1318 -1319 0
153 -1318 1319 0
-62 -1320 0
1318 -1320 0
62 -1318 1320 0
-151 -1321 0
1320 -1321 0
151 -1320 1321 0
-158 -1322 0
-159 -1322 0
158 159 1322 0
-160 -1323 0
-161 -1323 0
160 161 1323 0
1322 -1324 0
1323 -1324 0
-1322 -1323 1324 0
-144 -1325 0
149 -1325 0
144 -149 1325 0
144 -1326 0
-149 -1326 0
-144 149 1326 0
-163 -1327 0
-164 -1327 0
163 164 1327 0
-165 -1328 0
1320 -1328 0
165 -1320 1328 0
-162 -1329 0
-166 -1329 0
162 166 1329 0
-192 -1330 0
-193 -1330 0
192 193 1330 0
-195 -1331 0
-196 -1331 0
195 196 1331 0
-198 -1332 0
-199 -1332 0
198 199 1332 0
-28 -1333 0
-201 -1333 0
28 201 1333 0
-27 -1334 0
-203 -1334 0
27 203 1334 0
-26 -1335 0
-205 -1335 0
26 205 1335 0
-25 -1336 0
-207 -1336 0
25 207 1336 0
-200 -1337 0
-206 -1337 0
200 206 1337 0
-197 -1338 0
-200 -1338 0
197 200 1338 0
-204 -1339 0
1338 -1339 0
204 -1338 1339 0
-194 -1340 0
1338 -1340 0
194 -1338 1340 0
-202 -1341 0
1340 -1341 0
202 -1340 1341 0
-209 -1342 0
-210 -1342 0
209 210 1342 0
-211 -1343 0
-212 -1343 0
211 212 1343 0
1342 -1344 0
1343 -1344 0
-1342 -1343 1344 0
-214 -1345 0
-215 -1345 0
214 215 1345 0
-216 -1346 0
1340 -1346 0
216 -1340 1346 0
-213 -1347 0
-217 -1347 0
213 217 1347 0
-213 -1348 0
218 -1348 0
213 -218 1348 0
213 -1349 0
-218 -1349 0
-213 218 1349 0
-219 -1350 0
-220 -1350 0
219 220 1350 0
-222 -1351 0
-223 -1351 0
222 223 1351 0
-225 -1352 0
-226 -1352 0
225 226 1352 0
-24 -1353 0
-228 -1353 0
24 228 1353 0
-23 -1354 0
-230 -1354 0
23 230 1354 0
-22 -1355 0
-232 -1355 0
22 232 1355 0
-227 -1356 0
-233 -1356 0
227 233 1356 0
-224 -1357 0
-227 -1357 0
224 227 1357 0
-231 -1358 0
1357 -1358 0
231 -1357 1358 0
-234 -1359 0
-235 -1359 0
234 235 1359 0
-236 -1360 0
-237 -1360 0
236 237 1360 0
1359 -1361 0
1360 -1361 0
-1359 -1360 1361 0
-239 -1362 0
-240 -1362 0
239 240 1362 0
-238 -1363 0
-242 -1363 0
238 242 1363 0
-238 -1364 0
243 -1364 0
238 -243 1364 0
238 -1365 0
-243 -1365 0
-238 243 1365 0
-244 -1366 0
-245 -1366 0
244 245 1366 0
-247 -1367 0
-248 -1367 0
247 248 1367 0
-250 -1368 0
-251 -1368 0
250 251 1368 0
-20 -1369 0
-253 -1369 0
20 253 1369 0
-19 -1370 0
-255 -1370 0
19 255 1370 0
-18 -1371 0
-257 -1371 0
18 257 1371 0
-17 -1372 0
-259 -1372 0
17 259 1372 0
-252 -1373 0
-258 -1373 0
252 258 1373 0
-249 -1374 0
-252 -1374 0
249 252 1374 0
-256 -1375 0
1374 -1375 0
256 -1374 1375 0
-261 -1376 0
-262 -1376 0
261 262 1376 0
-263 -1377 0
-264 -1377 0
263 264 1377 0
1376 -1378 0
1377 -1378 0
-1376 -1377 1378 0
-266 -1379 0
-267 -1379 0
266 267 1379 0
-269 -1380 0
-270 -1380 0
269 270 1380 0
-272 -1381 0
-273 -1381 0
272 273 1381 0
-275 -1382 0
-276 -1382 0
275 276 1382 0
-278 -1383 0
-279 -1383 0
278 279 1383 0
-271 -1384 0
-274 -1384 0
271 274 1384 0
-277 -1385 0
-280 -1385 0
277 280 1385 0
1384 -1386 0
1385 -1386 0
-1384 -1385 1386 0
-282 -1387 0
-283 -1387 0
282 283 1387 0
-218 -1388 0
-285 -1388 0
218 285 1388 0
-243 -1389 0
-287 -1389 0
243 287 1389 0
267 -1390 0
-289 -1390 0
-267 289 1390 0
-268 -1391 0
-288 -1391 0
268 288 1391 0
-246 -1392 0
-268 -1392 0
246 268 1392 0
-286 -1393 0
1392 -1393 0
286 -1392 1393 0
-221 -1394 0
1392 -1394 0
221 -1392 1394 0
-284 -1395 0
1394 -1395 0
284 -1394 1395 0
-291 -1396 0
-292 -1396 0
291 292 1396 0
-293 -1397 0
-294 -1397 0
293 294 1397 0
1396 -1398 0
1397 -1398 0
-1396 -1397 1398 0
-296 -1399 0
-297 -1399 0
296 297 1399 0
-298 -1400 0
1394 -1400 0
298 -1394 1400 0
-295 -1401 0
-299 -1401 0
295 299 1401 0
-32 -1402 0
-301 -1402 0
32 301 1402 0
-31 -1403 0
-303 -1403 0
31 303 1403 0
-30 -1404 0
-305 -1404 0
30 305 1404 0
-307 -1405 0
-308 -1405 0
307 308 1405 0
167 -1406 0
-300 -1406 0
-167 300 1406 0
-167 -1407 0
300 -1407 0
167 -300 1407 0
-1406 -1408 0
-1407 -1408 0
1406 1407 1408 0
166 -1409 0
-299 -1409 0
-166 299 1409 0
-166 -1410 0
299 -1410 0
166 -299 1410 0
-1409 -1411 0
-1410 -1411 0
1409 1410 1411 0
162 -1412 0
-295 -1412 0
-162 295 1412 0
-162 -1413 0
295 -1413 0
162 -295 1413 0
-1412 -1414 0
-1413 -1414 0
1412 1413 1414 0
311 -1415 0
312 -1415 0
-311 -312 1415 0
313 -1416 0
1415 -1416 0
-313 -1415 1416 0
-3 -1417 0
-174 -1417 0
3 174 1417 0
3 -1418 0
174 -1418 0
-3 -174 1418 0
-1417 -1419 0
-1418 -1419 0
1417 1418 1419 0
-19 -1420 0
-175 -1420 0
19 175 1420 0
19 -1421 0
175 -1421 0
-19 -175 1421 0
-1420 -1422 0
-1421 -1422 0
1420 1421 1422 0
-5 -1423 0
-176 -1423 0
5 176 1423 0
5 -1424 0
176 -1424 0
-5 -176 1424 0
-1423 -1425 0
-1424 -1425 0
1423 1424 1425 0
-21 -1426 0
-177 -1426 0
21 177 1426 0
21 -1427 0
177 -1427 0
-21 -177 1427 0
-1426 -1428 0
-1427 -1428 0
1426 1427 1428 0
-7 -1429 0
-178 -1429 0
7 178 1429 0
7 -1430 0
178 -1430 0
-7 -178 1430 0
-1429 -1431 0
-1430 -1431 0
1429 1430 1431 0
-23 -1432 0
-179 -1432 0
23 179 1432 0
23 -1433 0
179 -1433 0
-23 -179 1433 0
-1432 -1434 0
-1433 -1434 0
1432 1433 1434 0
-13 -1435 0
-180 -1435 0
13 180 1435 0
13 -1436 0
180 -1436 0
-13 -180 1436 0
-1435 -1437 0
-1436 -1437 0
1435 1436 1437 0
-29 -1438 0
-181 -1438 0
29 181 1438 0
29 -1439 0
181 -1439 0
-29 -181 1439 0
-1438 -1440 0
-1439 -1440 0
1438 1439 1440 0
182 -1441 0
-272 -1441 0
-182 272 1441 0
-274 -1442 0
-1441 -1442 0
274 1441 1442 0
182 -1443 0
274 -1443 0
-182 -274 1443 0
-1442 -1444 0
-1443 -1444 0
1442 1443 1444 0
183 -1445 0
-277 -1445 0
-183 277 1445 0
-183 -1446 0
277 -1446 0
183 -277 1446 0
-1382 -1447 0
1446 -1447 0
1382 -1446 1447 0
-1445 -1448 0
-1447 -1448 0
1445 1447 1448 0
-1293 -1449 0
-1294 -1449 0
1293 1294 1449 0
184 -1450 0
-280 -1450 0
-184 280 1450 0
1449 -1451 0
1450 -1451 0
-1449 -1450 1451 0
-184 -1452 0
280 -1452 0
184 -280 1452 0
-1449 -1453 0
1452 -1453 0
1449 -1452 1453 0
-1451 -1454 0
-1453 -1454 0
1451 1453 1454 0
-185 -1455 0
-302 -1455 0
185 302 1455 0
185 -1456 0
302 -1456 0
-185 -302 1456 0
-1455 -1457 0
-1456 -1457 0
1455 1456 1457 0
-186 -1458 0
304 -1458 0
186 -304 1458 0
-1288 -1459 0
-1458 -1459 0
1288 1458 1459 0
186 -1460 0
-304 -1460 0
-186 304 1460 0
1288 -1461 0
-1460 -1461 0
-1288 1460 1461 0
-1459 -1462 0
-1461 -1462 0
1459 1461 1462 0
-187 -1463 0
306 -1463 0
187 -306 1463 0
-1291 -1464 0
-1463 -1464 0
1291 1463 1464 0
187 -1465 0
-306 -1465 0
-187 306 1465 0
1291 -1466 0
-1465 -1466 0
-1291 1465 1466 0
-1464 -1467 0
-1466 -1467 0
1464 1466 1467 0
-189 -1468 0
-265 -1468 0
189 265 1468 0
189 -1469 0
265 -1469 0
-189 -265 1469 0
-1468 -1470 0
-1469 -1470 0
1468 1469 1470 0
-190 -1471 0
-310 -1471 0
190 310 1471 0
190 -1472 0
310 -1472 0
-190 -310 1472 0
-1471 -1473 0
-1472 -1473 0
1471 1472 1473 0
